enter example

minimize
 x0 + x1 + x2 + x3 + x4 + x5 + x6 + x7 + x8 + x9 + x10 + x11 + x12 + x13 + x14 + x15 + x16 + x17 + x18 + x19 + x20 + x21 + x22 + x23 + x24 + x25 + x26 + x27 + x28 + x29 + x30 + x31 + x32 + x33 + x34 + x35 + x36 + x37 + x38 + x39 + x40 + x41 + x42 + x43 + x44 + x45 + x46 + x47 + x48 + x49 + x50 + x51 + x52 + x53 + x54 + x55 + x56 + x57 + x58 + x59 + x60 + x61 + x62 + x63 + x64 + x65 + x66 + x67 + x68 + x69 + x70 + x71 + x72 + x73 + x74 + x75 + x76 + x77 + x78 + x79 + x80 + x81 + x82 + x83 + x84 +
 z0 + z1 + z2 + z3 + z4 + z5 + z6 + z7 + z8 + z9 + z10 + z11 + z12 + z13 + z14 + z15 + z16 + z17 + z18 + z19 + z20 + z21 + z22 + z23 + z24 + z25 + z26 + z27 + z28 + z29 + z30 + z31 + z32 + z33 + z34 + z35 + z36 + z37 + z38 + z39 + z40 + z41 + z42 + z43 + z44 + z45 + z46 + z47 + z48 + z49 + z50 + z51 + z52 + z53 + z54 + z55 + z56 + z57 + z58 + z59 + z60 + z61 + z62 + z63 + z64 + z65 + z66 + z67 + z68 + z69 + z70 + z71 + z72 + z73 + z74 + z75 + z76 + z77 + z78 + z79 + z80 + z81 + z82 + z83 + z84 +
 y0 + y1 + y2 + y3 + y4 + y5 + y6 + y7 + y8 + y9 + y10 + y11 + y12 + y13 + y14 + y15 + y16 + y17 + y18 + y19 + y20 + y21 + y22 + y23 + y24 + y25 + y26 + y27 + y28 + y29 + y30 + y31 + y32 + y33 + y34 + y35 + y36 + y37 + y38 + y39 + y40 + y41 + y42 + y43 + y44 + y45 + y46 + y47 + y48 + y49 + y50 + y51 + y52 + y53 + y54 + y55 + y56 + y57 + y58 + y59 + y60 + y61 + y62 + y63 + y64 + y65 + y66 + y67 + y68 + y69 + y70 + y71 + y72 + y73 + y74 + y75 + y76 + y77 + y78 + y79 + y80 + y81 + y82 + y83 + y84

subject to 
x0 + y0 + x7 + y7 + x49 + y49 -2 w0 = 1
x1 + y1 + x8 + y8 + x49 + y49 + x50 + y50 -2 w1 = 0
x2 + y2 + x9 + y9 + x50 + y50 + x51 + y51 -2 w2 = 0
x3 + y3 + x10 + y10 + x51 + y51 + x52 + y52 -2 w3 = 0
x4 + y4 + x11 + y11 + x52 + y52 + x53 + y53 -2 w4 = 0
x5 + y5 + x12 + y12 + x53 + y53 + x54 + y54 -2 w5 = 0
x6 + y6 + x13 + y13 + x54 + y54 -2 w6 = 0
x7 + y7 + x14 + y14 + x55 + y55 -2 w7 = 1
x8 + y8 + x15 + y15 + x55 + y55 + x56 + y56 -2 w8 = 0
x9 + y9 + x16 + y16 + x56 + y56 + x57 + y57 -2 w9 = 0
x10 + y10 + x17 + y17 + x57 + y57 + x58 + y58 -2 w10 = 0
x11 + y11 + x18 + y18 + x58 + y58 + x59 + y59 -2 w11 = 0
x12 + y12 + x19 + y19 + x59 + y59 + x60 + y60 -2 w12 = 0
x13 + y13 + x20 + y20 + x60 + y60 -2 w13 = 1
x14 + y14 + x21 + y21 + x61 + y61 -2 w14 = 0
x15 + y15 + x22 + y22 + x61 + y61 + x62 + y62 -2 w15 = 0
x16 + y16 + x23 + y23 + x62 + y62 + x63 + y63 -2 w16 = 0
x17 + y17 + x24 + y24 + x63 + y63 + x64 + y64 -2 w17 = 0
x18 + y18 + x25 + y25 + x64 + y64 + x65 + y65 -2 w18 = 0
x19 + y19 + x26 + y26 + x65 + y65 + x66 + y66 -2 w19 = 0
x20 + y20 + x27 + y27 + x66 + y66 -2 w20 = 1
x21 + y21 + x28 + y28 + x67 + y67 -2 w21 = 0
x22 + y22 + x29 + y29 + x67 + y67 + x68 + y68 -2 w22 = 0
x23 + y23 + x30 + y30 + x68 + y68 + x69 + y69 -2 w23 = 0
x24 + y24 + x31 + y31 + x69 + y69 + x70 + y70 -2 w24 = 0
x25 + y25 + x32 + y32 + x70 + y70 + x71 + y71 -2 w25 = 0
x26 + y26 + x33 + y33 + x71 + y71 + x72 + y72 -2 w26 = 0
x27 + y27 + x34 + y34 + x72 + y72 -2 w27 = 0
x28 + y28 + x35 + y35 + x73 + y73 -2 w28 = 0
x29 + y29 + x36 + y36 + x73 + y73 + x74 + y74 -2 w29 = 0
x30 + y30 + x37 + y37 + x74 + y74 + x75 + y75 -2 w30 = 1
x31 + y31 + x38 + y38 + x75 + y75 + x76 + y76 -2 w31 = 0
x32 + y32 + x39 + y39 + x76 + y76 + x77 + y77 -2 w32 = 0
x33 + y33 + x40 + y40 + x77 + y77 + x78 + y78 -2 w33 = 1
x34 + y34 + x41 + y41 + x78 + y78 -2 w34 = 1
x35 + y35 + x42 + y42 + x79 + y79 -2 w35 = 0
x36 + y36 + x43 + y43 + x79 + y79 + x80 + y80 -2 w36 = 0
x37 + y37 + x44 + y44 + x80 + y80 + x81 + y81 -2 w37 = 1
x38 + y38 + x45 + y45 + x81 + y81 + x82 + y82 -2 w38 = 0
x39 + y39 + x46 + y46 + x82 + y82 + x83 + y83 -2 w39 = 0
x40 + y40 + x47 + y47 + x83 + y83 + x84 + y84 -2 w40 = 0
x41 + y41 + x48 + y48 + x84 + y84 -2 w41 = 0
z0 + y0 + z1 + y1 + z49 + y49 -2 w42 = 0
z1 + y1 + z2 + y2 + z50 + y50 -2 w43 = 0
z2 + y2 + z3 + y3 + z51 + y51 -2 w44 = 0
z3 + y3 + z4 + y4 + z52 + y52 -2 w45 = 0
z4 + y4 + z5 + y5 + z53 + y53 -2 w46 = 0
z5 + y5 + z6 + y6 + z54 + y54 -2 w47 = 0
z7 + y7 + z8 + y8 + z49 + y49 + z55 + y55 -2 w48 = 0
z8 + y8 + z9 + y9 + z50 + y50 + z56 + y56 -2 w49 = 1
z9 + y9 + z10 + y10 + z51 + y51 + z57 + y57 -2 w50 = 0
z10 + y10 + z11 + y11 + z52 + y52 + z58 + y58 -2 w51 = 0
z11 + y11 + z12 + y12 + z53 + y53 + z59 + y59 -2 w52 = 0
z12 + y12 + z13 + y13 + z54 + y54 + z60 + y60 -2 w53 = 0
z14 + y14 + z15 + y15 + z55 + y55 + z61 + y61 -2 w54 = 0
z15 + y15 + z16 + y16 + z56 + y56 + z62 + y62 -2 w55 = 0
z16 + y16 + z17 + y17 + z57 + y57 + z63 + y63 -2 w56 = 0
z17 + y17 + z18 + y18 + z58 + y58 + z64 + y64 -2 w57 = 1
z18 + y18 + z19 + y19 + z59 + y59 + z65 + y65 -2 w58 = 1
z19 + y19 + z20 + y20 + z60 + y60 + z66 + y66 -2 w59 = 1
z21 + y21 + z22 + y22 + z61 + y61 + z67 + y67 -2 w60 = 0
z22 + y22 + z23 + y23 + z62 + y62 + z68 + y68 -2 w61 = 0
z23 + y23 + z24 + y24 + z63 + y63 + z69 + y69 -2 w62 = 0
z24 + y24 + z25 + y25 + z64 + y64 + z70 + y70 -2 w63 = 0
z25 + y25 + z26 + y26 + z65 + y65 + z71 + y71 -2 w64 = 0
z26 + y26 + z27 + y27 + z66 + y66 + z72 + y72 -2 w65 = 1
z28 + y28 + z29 + y29 + z67 + y67 + z73 + y73 -2 w66 = 0
z29 + y29 + z30 + y30 + z68 + y68 + z74 + y74 -2 w67 = 1
z30 + y30 + z31 + y31 + z69 + y69 + z75 + y75 -2 w68 = 1
z31 + y31 + z32 + y32 + z70 + y70 + z76 + y76 -2 w69 = 0
z32 + y32 + z33 + y33 + z71 + y71 + z77 + y77 -2 w70 = 0
z33 + y33 + z34 + y34 + z72 + y72 + z78 + y78 -2 w71 = 1
z35 + y35 + z36 + y36 + z73 + y73 + z79 + y79 -2 w72 = 1
z36 + y36 + z37 + y37 + z74 + y74 + z80 + y80 -2 w73 = 0
z37 + y37 + z38 + y38 + z75 + y75 + z81 + y81 -2 w74 = 0
z38 + y38 + z39 + y39 + z76 + y76 + z82 + y82 -2 w75 = 0
z39 + y39 + z40 + y40 + z77 + y77 + z83 + y83 -2 w76 = 1
z40 + y40 + z41 + y41 + z78 + y78 + z84 + y84 -2 w77 = 0
z42 + y42 + z43 + y43 + z79 + y79 -2 w78 = 1
z43 + y43 + z44 + y44 + z80 + y80 -2 w79 = 0
z44 + y44 + z45 + y45 + z81 + y81 -2 w80 = 0
z45 + y45 + z46 + y46 + z82 + y82 -2 w81 = 0
z46 + y46 + z47 + y47 + z83 + y83 -2 w82 = 0
z47 + y47 + z48 + y48 + z84 + y84 -2 w83 = 0


bound

general
w0
w1
w2
w3
w4
w5
w6
w7
w8
w9
w10
w11
w12
w13
w14
w15
w16
w17
w18
w19
w20
w21
w22
w23
w24
w25
w26
w27
w28
w29
w30
w31
w32
w33
w34
w35
w36
w37
w38
w39
w40
w41
w42
w43
w44
w45
w46
w47
w48
w49
w50
w51
w52
w53
w54
w55
w56
w57
w58
w59
w60
w61
w62
w63
w64
w65
w66
w67
w68
w69
w70
w71
w72
w73
w74
w75
w76
w77
w78
w79
w80
w81
w82
w83


binary

x0
x1
x2
x3
x4
x5
x6
x7
x8
x9
x10
x11
x12
x13
x14
x15
x16
x17
x18
x19
x20
x21
x22
x23
x24
x25
x26
x27
x28
x29
x30
x31
x32
x33
x34
x35
x36
x37
x38
x39
x40
x41
x42
x43
x44
x45
x46
x47
x48
x49
x50
x51
x52
x53
x54
x55
x56
x57
x58
x59
x60
x61
x62
x63
x64
x65
x66
x67
x68
x69
x70
x71
x72
x73
x74
x75
x76
x77
x78
x79
x80
x81
x82
x83
x84
y0
y1
y2
y3
y4
y5
y6
y7
y8
y9
y10
y11
y12
y13
y14
y15
y16
y17
y18
y19
y20
y21
y22
y23
y24
y25
y26
y27
y28
y29
y30
y31
y32
y33
y34
y35
y36
y37
y38
y39
y40
y41
y42
y43
y44
y45
y46
y47
y48
y49
y50
y51
y52
y53
y54
y55
y56
y57
y58
y59
y60
y61
y62
y63
y64
y65
y66
y67
y68
y69
y70
y71
y72
y73
y74
y75
y76
y77
y78
y79
y80
y81
y82
y83
y84
z0
z1
z2
z3
z4
z5
z6
z7
z8
z9
z10
z11
z12
z13
z14
z15
z16
z17
z18
z19
z20
z21
z22
z23
z24
z25
z26
z27
z28
z29
z30
z31
z32
z33
z34
z35
z36
z37
z38
z39
z40
z41
z42
z43
z44
z45
z46
z47
z48
z49
z50
z51
z52
z53
z54
z55
z56
z57
z58
z59
z60
z61
z62
z63
z64
z65
z66
z67
z68
z69
z70
z71
z72
z73
z74
z75
z76
z77
z78
z79
z80
z81
z82
z83
z84


end